%%% static parameters %%%
timespan = 1;
Fact = [4];
Distr1 = [15];
Distr2 = [30];
Clients_N = [300];
Demand_W = [15];
Lt0 = [4];
Lt1 = [4];
SS_ = [0.85];
DS_D = [8];
K = [200];
MA = [500];
%%% dynamic parameters %%%
lost_ratio_sales_ret_th = 0.8797702291279492;
lost_ratio_sales_ret_w = 27;
lost_ratio_sales_dis_th = 0.05996499379072184;
lost_ratio_sales_dis_w = 88;
lost_ratio_sales_fac_th = 0.20651999421340905;
lost_ratio_sales_fac_w = 1;
stock_customer_MA_mean_relative_th = 0.37711204547763955;
stock_customer_MA_mean_relative_w = 62;
stock_distributor_MA_mean_relative_th = 0.1242125343653272;
stock_distributor_MA_mean_relative_w = 31;
stock_retailer_MA_mean_relative_th = 0.7461171183651779;
stock_retailer_MA_mean_relative_w = 79;
stock_factory_MA_mean_relative_th = 0.4195314972995814;
stock_factory_MA_mean_relative_w = 15;
